(set-logic HORN)
(declare-fun assign_287_29_5_abs01 (Int Int Int Int Int Int) Bool)
(declare-fun assert_278_28_5_abs01 (Int Int Int Int Int Int) Bool)
(declare-fun assert_254_27_12_abs01 (Int Int Int Int Int Int) Bool)
(declare-fun while_290_26_1_abs01 (Int Int Int Int Int Int) Bool)
(declare-fun assign_210_25_1_abs01 (Int Int Int Int Int Int) Bool)
(declare-fun assign_201_22_5_abs01 (Int Int Int Int Int Int) Bool)
(declare-fun arrayassign_192_21_5_abs01 (Int Int Int Int Int Int) Bool)
(declare-fun assert_172_20_12_abs01 (Int Int Int Int Int Int) Bool)
(declare-fun while_204_19_1_abs01 (Int Int Int Int Int Int) Bool)
(declare-fun assign_128_18_1_abs01 (Int Int Int Int Int Int) Bool)
(declare-fun assign_119_15_5_abs01 (Int Int Int Int Int Int) Bool)
(declare-fun arrayassign_110_14_5_abs01 (Int Int Int Int Int Int) Bool)
(declare-fun assert_96_13_12_abs01 (Int Int Int Int Int Int) Bool)
(declare-fun while_122_12_1_abs01 (Int Int Int Int Int Int) Bool)
(declare-fun assign_58_11_8_abs01 (Int Int Int Int Int Int) Bool)
(declare-fun assign_52_9_1_abs01 (Int Int Int Int Int Int) Bool)
(declare-fun end_abs01 (Int Int Int Int Int Int) Bool)
(declare-fun start_abs01 (Int Int Int Int Int Int) Bool)
(assert (forall ((a_copy (Array Int Int)) (a (Array Int Int)) (N Int) (i Int) (vabs_f_f Int) (vabs_s_f_f Int)) (start_abs01 vabs_f_f (select a_copy vabs_f_f) vabs_s_f_f (select a vabs_s_f_f) N i)))
(assert (forall ((i Int) (N Int) (a (Array Int Int)) (a_copy (Array Int Int)) (vabs_0_f_f Int) (vabs_0_s_f_f Int)) (=> (start_abs01 vabs_0_f_f (select a_copy vabs_0_f_f) vabs_0_s_f_f (select a vabs_0_s_f_f) N i) (assign_52_9_1_abs01 vabs_0_f_f (select a_copy vabs_0_f_f) vabs_0_s_f_f (select a vabs_0_s_f_f) N i))))
(assert (forall ((rnd Int) (i Int) (N Int) (a (Array Int Int)) (a_copy (Array Int Int)) (vabs_0_f_f Int) (vabs_0_s_f_f Int)) (=> (assign_52_9_1_abs01 vabs_0_f_f (select a_copy vabs_0_f_f) vabs_0_s_f_f (select a vabs_0_s_f_f) N i) (assign_58_11_8_abs01 vabs_0_f_f (select a_copy vabs_0_f_f) vabs_0_s_f_f (select a vabs_0_s_f_f) rnd i))))
(assert (forall ((i Int) (N Int) (a (Array Int Int)) (a_copy (Array Int Int)) (vabs_0_f_f Int) (vabs_0_s_f_f Int)) (=> (assign_58_11_8_abs01 vabs_0_f_f (select a_copy vabs_0_f_f) vabs_0_s_f_f (select a vabs_0_s_f_f) N i) (while_122_12_1_abs01 vabs_0_f_f (select a_copy vabs_0_f_f) vabs_0_s_f_f (select a vabs_0_s_f_f) N 0))))
(assert (forall ((a_copy (Array Int Int)) (a (Array Int Int)) (N Int) (i Int) (vabs_0_f_f Int) (vabs_0_s_f_f Int)) (=> (and (while_122_12_1_abs01 vabs_0_f_f (select a_copy vabs_0_f_f) vabs_0_s_f_f (select a vabs_0_s_f_f) N i) (< i N)) (assert_96_13_12_abs01 vabs_0_f_f (select a_copy vabs_0_f_f) vabs_0_s_f_f (select a vabs_0_s_f_f) N i))))
(assert (forall ((a_copy (Array Int Int)) (a (Array Int Int)) (N Int) (i Int) (vabs_0_f_f Int) (vabs_0_s_f_f Int)) (=> (and (while_122_12_1_abs01 vabs_0_f_f (select a_copy vabs_0_f_f) vabs_0_s_f_f (select a vabs_0_s_f_f) N i) (not (< i N))) (assign_128_18_1_abs01 vabs_0_f_f (select a_copy vabs_0_f_f) vabs_0_s_f_f (select a vabs_0_s_f_f) N i))))
(assert (forall ((k Int) (i Int) (N Int) (a (Array Int Int)) (a_copy (Array Int Int))) (=> (and (assert_96_13_12_abs01 k (select a_copy k) k (select a k) N i) (<= 0 k) (< k i)) (= (select a_copy k) (select a k)))))
(assert (forall ((i Int) (N Int) (a (Array Int Int)) (a_copy (Array Int Int)) (vabs_0_f_f Int) (vabs_0_s_f_f Int)) (=> (assert_96_13_12_abs01 vabs_0_f_f (select a_copy vabs_0_f_f) vabs_0_s_f_f (select a vabs_0_s_f_f) N i) (arrayassign_110_14_5_abs01 vabs_0_f_f (select a_copy vabs_0_f_f) vabs_0_s_f_f (select a vabs_0_s_f_f) N i))))
(assert (forall ((i Int) (N Int) (a (Array Int Int)) (a_copy (Array Int Int)) (vabs_0_f_f Int) (vabs_0_s_f_f Int)) (=> (and (arrayassign_110_14_5_abs01 vabs_0_f_f (select a_copy vabs_0_f_f) vabs_0_s_f_f (select a vabs_0_s_f_f) N i) (arrayassign_110_14_5_abs01 vabs_0_f_f (select a_copy vabs_0_f_f) i (select a i) N i)) (assign_119_15_5_abs01 vabs_0_f_f (select (store a_copy i (select a i)) vabs_0_f_f) vabs_0_s_f_f (select a vabs_0_s_f_f) N i))))
(assert (forall ((i Int) (N Int) (a (Array Int Int)) (a_copy (Array Int Int)) (vabs_0_f_f Int) (vabs_0_s_f_f Int)) (=> (assign_119_15_5_abs01 vabs_0_f_f (select a_copy vabs_0_f_f) vabs_0_s_f_f (select a vabs_0_s_f_f) N i) (while_122_12_1_abs01 vabs_0_f_f (select a_copy vabs_0_f_f) vabs_0_s_f_f (select a vabs_0_s_f_f) N (+ i 1)))))
(assert (forall ((i Int) (N Int) (a (Array Int Int)) (a_copy (Array Int Int)) (vabs_0_f_f Int) (vabs_0_s_f_f Int)) (=> (assign_128_18_1_abs01 vabs_0_f_f (select a_copy vabs_0_f_f) vabs_0_s_f_f (select a vabs_0_s_f_f) N i) (while_204_19_1_abs01 vabs_0_f_f (select a_copy vabs_0_f_f) vabs_0_s_f_f (select a vabs_0_s_f_f) N 0))))
(assert (forall ((a_copy (Array Int Int)) (a (Array Int Int)) (N Int) (i Int) (vabs_0_f_f Int) (vabs_0_s_f_f Int)) (=> (and (while_204_19_1_abs01 vabs_0_f_f (select a_copy vabs_0_f_f) vabs_0_s_f_f (select a vabs_0_s_f_f) N i) (< i N)) (assert_172_20_12_abs01 vabs_0_f_f (select a_copy vabs_0_f_f) vabs_0_s_f_f (select a vabs_0_s_f_f) N i))))
(assert (forall ((a_copy (Array Int Int)) (a (Array Int Int)) (N Int) (i Int) (vabs_0_f_f Int) (vabs_0_s_f_f Int)) (=> (and (while_204_19_1_abs01 vabs_0_f_f (select a_copy vabs_0_f_f) vabs_0_s_f_f (select a vabs_0_s_f_f) N i) (not (< i N))) (assign_210_25_1_abs01 vabs_0_f_f (select a_copy vabs_0_f_f) vabs_0_s_f_f (select a vabs_0_s_f_f) N i))))
(assert (forall ((k Int) (i Int) (N Int) (a (Array Int Int)) (a_copy (Array Int Int))) (=> (and (assert_172_20_12_abs01 (- (- N k) 1) (select a_copy (- (- N k) 1)) k (select a k) N i) (<= 0 k) (< k i)) (= (select a_copy (- (- N k) 1)) (select a k)))))
(assert (forall ((i Int) (N Int) (a (Array Int Int)) (a_copy (Array Int Int)) (vabs_0_f_f Int) (vabs_0_s_f_f Int)) (=> (assert_172_20_12_abs01 vabs_0_f_f (select a_copy vabs_0_f_f) vabs_0_s_f_f (select a vabs_0_s_f_f) N i) (arrayassign_192_21_5_abs01 vabs_0_f_f (select a_copy vabs_0_f_f) vabs_0_s_f_f (select a vabs_0_s_f_f) N i))))
(assert (forall ((i Int) (N Int) (a (Array Int Int)) (a_copy (Array Int Int)) (vabs_0_f_f Int) (vabs_0_s_f_f Int)) (=> (and (arrayassign_192_21_5_abs01 (- (- N i) 1) (select a_copy (- (- N i) 1)) vabs_0_s_f_f (select a vabs_0_s_f_f) N i) (arrayassign_192_21_5_abs01 vabs_0_f_f (select a_copy vabs_0_f_f) vabs_0_s_f_f (select a vabs_0_s_f_f) N i)) (assign_201_22_5_abs01 vabs_0_f_f (select a_copy vabs_0_f_f) vabs_0_s_f_f (select (store a i (select a_copy (- (- N i) 1))) vabs_0_s_f_f) N i))))
(assert (forall ((i Int) (N Int) (a (Array Int Int)) (a_copy (Array Int Int)) (vabs_0_f_f Int) (vabs_0_s_f_f Int)) (=> (assign_201_22_5_abs01 vabs_0_f_f (select a_copy vabs_0_f_f) vabs_0_s_f_f (select a vabs_0_s_f_f) N i) (while_204_19_1_abs01 vabs_0_f_f (select a_copy vabs_0_f_f) vabs_0_s_f_f (select a vabs_0_s_f_f) N (+ i 1)))))
(assert (forall ((i Int) (N Int) (a (Array Int Int)) (a_copy (Array Int Int)) (vabs_0_f_f Int) (vabs_0_s_f_f Int)) (=> (assign_210_25_1_abs01 vabs_0_f_f (select a_copy vabs_0_f_f) vabs_0_s_f_f (select a vabs_0_s_f_f) N i) (while_290_26_1_abs01 vabs_0_f_f (select a_copy vabs_0_f_f) vabs_0_s_f_f (select a vabs_0_s_f_f) N 0))))
(assert (forall ((a_copy (Array Int Int)) (a (Array Int Int)) (N Int) (i Int) (vabs_0_f_f Int) (vabs_0_s_f_f Int)) (=> (and (while_290_26_1_abs01 vabs_0_f_f (select a_copy vabs_0_f_f) vabs_0_s_f_f (select a vabs_0_s_f_f) N i) (< i N)) (assert_254_27_12_abs01 vabs_0_f_f (select a_copy vabs_0_f_f) vabs_0_s_f_f (select a vabs_0_s_f_f) N i))))
(assert (forall ((a_copy (Array Int Int)) (a (Array Int Int)) (N Int) (i Int) (vabs_0_f_f Int) (vabs_0_s_f_f Int)) (=> (and (while_290_26_1_abs01 vabs_0_f_f (select a_copy vabs_0_f_f) vabs_0_s_f_f (select a vabs_0_s_f_f) N i) (not (< i N))) (end_abs01 vabs_0_f_f (select a_copy vabs_0_f_f) vabs_0_s_f_f (select a vabs_0_s_f_f) N i))))
(assert (forall ((k Int) (i Int) (N Int) (a (Array Int Int)) (a_copy (Array Int Int))) (=> (and (assert_254_27_12_abs01 (- (- N k) 1) (select a_copy (- (- N k) 1)) k (select a k) N i) (<= 0 k) (< k N)) (= (select a_copy (- (- N k) 1)) (select a k)))))
(assert (forall ((i Int) (N Int) (a (Array Int Int)) (a_copy (Array Int Int)) (vabs_0_f_f Int) (vabs_0_s_f_f Int)) (=> (assert_254_27_12_abs01 vabs_0_f_f (select a_copy vabs_0_f_f) vabs_0_s_f_f (select a vabs_0_s_f_f) N i) (assert_278_28_5_abs01 vabs_0_f_f (select a_copy vabs_0_f_f) vabs_0_s_f_f (select a vabs_0_s_f_f) N i))))
(assert (forall ((i Int) (N Int) (a (Array Int Int)) (a_copy (Array Int Int))) (=> (assert_278_28_5_abs01 (- (- N i) 1) (select a_copy (- (- N i) 1)) i (select a i) N i) (= (select a i) (select a_copy (- (- N i) 1))))))
(assert (forall ((i Int) (N Int) (a (Array Int Int)) (a_copy (Array Int Int)) (vabs_0_f_f Int) (vabs_0_s_f_f Int)) (=> (assert_278_28_5_abs01 vabs_0_f_f (select a_copy vabs_0_f_f) vabs_0_s_f_f (select a vabs_0_s_f_f) N i) (assign_287_29_5_abs01 vabs_0_f_f (select a_copy vabs_0_f_f) vabs_0_s_f_f (select a vabs_0_s_f_f) N i))))
(assert (forall ((i Int) (N Int) (a (Array Int Int)) (a_copy (Array Int Int)) (vabs_0_f_f Int) (vabs_0_s_f_f Int)) (=> (assign_287_29_5_abs01 vabs_0_f_f (select a_copy vabs_0_f_f) vabs_0_s_f_f (select a vabs_0_s_f_f) N i) (while_290_26_1_abs01 vabs_0_f_f (select a_copy vabs_0_f_f) vabs_0_s_f_f (select a vabs_0_s_f_f) N (+ i 1)))))
(check-sat)